Cs  V Sb 
 1.0000000000000000
     5.5036918474999998    0.0000000000000000    0.0000000000000000
    -2.7518459236999999    4.7663369544999998    0.0000000000000000
     0.0000000000000000    0.0000000000000000    9.8777538893999992
 Cs  V   Sb 
   1   3   5
Direct
  0.0000000000000000  0.0000000000000000  0.0000000000000000
  0.5000000000000000  0.0000000000000000  0.5000000000000000
  0.0000000000000000  0.5000000000000000  0.5000000000000000
  0.5000000000000000  0.5000000000000000  0.5000000000000000
  0.0000000000000000  0.0000000000000000  0.5000000000000000
  0.3333333333000000 -0.3333333333000000  0.7301451153000000
 -0.3333333333000000  0.3333333333000000  0.7301451153000000
  0.3333333333000000 -0.3333333333000000 -0.7301451153000000
 -0.3333333333000000  0.3333333333000000 -0.7301451153000000
