&CONTROL
  calculation='scf'
  restart_mode='from_scratch',
  prefix='CrSi',
  pseudo_dir = '../../../../pseudo',
  outdir='/zfs_data/vergnior/martin/Scratch/OAL/CrSi/convergence/cutoff/8x8x8/90/tmp',
  verbosity='high'
 /
&SYSTEM
  noncolin=.true.
  lspinorb=.true.
  ibrav=0,
  nat=8,
  ntyp=2,
  ecutwfc=90,
  ecutrho=900,
  occupations='smearing',
  smearing='mp',
  degauss=0.02,
 /
&ELECTRONS
  conv_thr =  1d-6
  mixing_beta = 0.7
 /
ATOMIC_SPECIES
Cr  51.996    Cr.rel-pbe-spn-kjpaw_psl.1.0.0.UPF
Si  28.085    Si.rel-pbe-n-kjpaw_psl.1.0.0.UPF 
ATOMIC_POSITIONS {CRYSTAL}
Cr  0.8639999999999999  0.3639999999999999  0.1360000000000001
Cr  0.3639999999999999  0.1360000000000001  0.8639999999999999
Cr  0.1360000000000001  0.8639999999999999  0.3639999999999999
Cr  0.6360000000000001  0.6360000000000001  0.6360000000000001
Si  0.1539999999999999  0.6539999999999999  0.8460000000000001
Si  0.6539999999999999  0.8460000000000001  0.1539999999999999
Si  0.8460000000000001  0.1539999999999999  0.6539999999999999
Si  0.3460000000000001  0.3460000000000001  0.3460000000000001
K_POINTS {automatic}
  8 8 8  0 0 0
CELL_PARAMETERS {angstrom}
     4.6289999999999996    0.0000000000000000    0.0000000000000000
     0.0000000000000000    4.6289999999999996    0.0000000000000000
     0.0000000000000000    0.0000000000000000    4.6289999999999996
