
&INPUTPH
  prefix='CsV3Sb5',
  recover=.true.
  outdir='/scratch/martin/CsV3Sb5/phonons/tmp/',
  fildyn='CsV3Sb5.dyn',
  ldisp=.true.,
  tr2_ph=1e-20
  alpha_mix=0.35,
  verbosity='high'
  nq1=2, nq2=2, nq3=2,
 /
