&CONTROL
  calculation='nscf'
  restart_mode='from_scratch',
  prefix='CsV3Sb5',
  pseudo_dir = '/lscratch/martin/195621/pseudo',
  outdir='/lscratch/martin/195621/tmp',
  verbosity='high'
 /
&SYSTEM
  noncolin=.true.
  lspinorb=.true.
  ibrav=0,
  nat=9,
  ntyp=3,
  ecutwfc=40,
  ecutrho=400,
  occupations='smearing',
  smearing='mp',
  degauss=0.012,
  vdw_corr='DFT-D' !van der waals correction
  nosym=.true.			!wannier does not detect symmetries
  nbnd=150,
 /
&ELECTRONS
  conv_thr =  1d-10
  mixing_beta = 0.4
  diagonalization='cg'
 /
ATOMIC_SPECIES
Cs  132.905   Cs.rel-pbe-spn-kjpaw_psl.1.0.0.UPF
V   50.941    V.rel-pbe-spnl-kjpaw_psl.1.0.0.UPF
Sb  121.76    Sb.rel-pbe-n-kjpaw_psl.1.0.0.UPF
ATOMIC_POSITIONS {crystal}
Cs            0.0000000000       -0.0000000000        0.0000000000
V             0.5000000000        0.0000000000        0.5000000000
V             0.0000000000        0.5000000000        0.5000000000
V             0.5000000000        0.5000000000        0.5000000000
Sb            0.0000000000        0.0000000000        0.5000000000
Sb            0.3333333333       -0.3333333333        0.7421674125
Sb           -0.3333333333        0.3333333333        0.7421674125
Sb            0.3333333333       -0.3333333333       -0.7421674125
Sb           -0.3333333333        0.3333333333       -0.7421674125

!generated with kmesh.pl (uniform grid)
K_POINTS crystal
864
  0.00000000  0.00000000  0.00000000  1.157407e-03
  0.00000000  0.00000000  0.16666667  1.157407e-03
  0.00000000  0.00000000  0.33333333  1.157407e-03
  0.00000000  0.00000000  0.50000000  1.157407e-03
  0.00000000  0.00000000  0.66666667  1.157407e-03
  0.00000000  0.00000000  0.83333333  1.157407e-03
  0.00000000  0.08333333  0.00000000  1.157407e-03
  0.00000000  0.08333333  0.16666667  1.157407e-03
  0.00000000  0.08333333  0.33333333  1.157407e-03
  0.00000000  0.08333333  0.50000000  1.157407e-03
  0.00000000  0.08333333  0.66666667  1.157407e-03
  0.00000000  0.08333333  0.83333333  1.157407e-03
  0.00000000  0.16666667  0.00000000  1.157407e-03
  0.00000000  0.16666667  0.16666667  1.157407e-03
  0.00000000  0.16666667  0.33333333  1.157407e-03
  0.00000000  0.16666667  0.50000000  1.157407e-03
  0.00000000  0.16666667  0.66666667  1.157407e-03
  0.00000000  0.16666667  0.83333333  1.157407e-03
  0.00000000  0.25000000  0.00000000  1.157407e-03
  0.00000000  0.25000000  0.16666667  1.157407e-03
  0.00000000  0.25000000  0.33333333  1.157407e-03
  0.00000000  0.25000000  0.50000000  1.157407e-03
  0.00000000  0.25000000  0.66666667  1.157407e-03
  0.00000000  0.25000000  0.83333333  1.157407e-03
  0.00000000  0.33333333  0.00000000  1.157407e-03
  0.00000000  0.33333333  0.16666667  1.157407e-03
  0.00000000  0.33333333  0.33333333  1.157407e-03
  0.00000000  0.33333333  0.50000000  1.157407e-03
  0.00000000  0.33333333  0.66666667  1.157407e-03
  0.00000000  0.33333333  0.83333333  1.157407e-03
  0.00000000  0.41666667  0.00000000  1.157407e-03
  0.00000000  0.41666667  0.16666667  1.157407e-03
  0.00000000  0.41666667  0.33333333  1.157407e-03
  0.00000000  0.41666667  0.50000000  1.157407e-03
  0.00000000  0.41666667  0.66666667  1.157407e-03
  0.00000000  0.41666667  0.83333333  1.157407e-03
  0.00000000  0.50000000  0.00000000  1.157407e-03
  0.00000000  0.50000000  0.16666667  1.157407e-03
  0.00000000  0.50000000  0.33333333  1.157407e-03
  0.00000000  0.50000000  0.50000000  1.157407e-03
  0.00000000  0.50000000  0.66666667  1.157407e-03
  0.00000000  0.50000000  0.83333333  1.157407e-03
  0.00000000  0.58333333  0.00000000  1.157407e-03
  0.00000000  0.58333333  0.16666667  1.157407e-03
  0.00000000  0.58333333  0.33333333  1.157407e-03
  0.00000000  0.58333333  0.50000000  1.157407e-03
  0.00000000  0.58333333  0.66666667  1.157407e-03
  0.00000000  0.58333333  0.83333333  1.157407e-03
  0.00000000  0.66666667  0.00000000  1.157407e-03
  0.00000000  0.66666667  0.16666667  1.157407e-03
  0.00000000  0.66666667  0.33333333  1.157407e-03
  0.00000000  0.66666667  0.50000000  1.157407e-03
  0.00000000  0.66666667  0.66666667  1.157407e-03
  0.00000000  0.66666667  0.83333333  1.157407e-03
  0.00000000  0.75000000  0.00000000  1.157407e-03
  0.00000000  0.75000000  0.16666667  1.157407e-03
  0.00000000  0.75000000  0.33333333  1.157407e-03
  0.00000000  0.75000000  0.50000000  1.157407e-03
  0.00000000  0.75000000  0.66666667  1.157407e-03
  0.00000000  0.75000000  0.83333333  1.157407e-03
  0.00000000  0.83333333  0.00000000  1.157407e-03
  0.00000000  0.83333333  0.16666667  1.157407e-03
  0.00000000  0.83333333  0.33333333  1.157407e-03
  0.00000000  0.83333333  0.50000000  1.157407e-03
  0.00000000  0.83333333  0.66666667  1.157407e-03
  0.00000000  0.83333333  0.83333333  1.157407e-03
  0.00000000  0.91666667  0.00000000  1.157407e-03
  0.00000000  0.91666667  0.16666667  1.157407e-03
  0.00000000  0.91666667  0.33333333  1.157407e-03
  0.00000000  0.91666667  0.50000000  1.157407e-03
  0.00000000  0.91666667  0.66666667  1.157407e-03
  0.00000000  0.91666667  0.83333333  1.157407e-03
  0.08333333  0.00000000  0.00000000  1.157407e-03
  0.08333333  0.00000000  0.16666667  1.157407e-03
  0.08333333  0.00000000  0.33333333  1.157407e-03
  0.08333333  0.00000000  0.50000000  1.157407e-03
  0.08333333  0.00000000  0.66666667  1.157407e-03
  0.08333333  0.00000000  0.83333333  1.157407e-03
  0.08333333  0.08333333  0.00000000  1.157407e-03
  0.08333333  0.08333333  0.16666667  1.157407e-03
  0.08333333  0.08333333  0.33333333  1.157407e-03
  0.08333333  0.08333333  0.50000000  1.157407e-03
  0.08333333  0.08333333  0.66666667  1.157407e-03
  0.08333333  0.08333333  0.83333333  1.157407e-03
  0.08333333  0.16666667  0.00000000  1.157407e-03
  0.08333333  0.16666667  0.16666667  1.157407e-03
  0.08333333  0.16666667  0.33333333  1.157407e-03
  0.08333333  0.16666667  0.50000000  1.157407e-03
  0.08333333  0.16666667  0.66666667  1.157407e-03
  0.08333333  0.16666667  0.83333333  1.157407e-03
  0.08333333  0.25000000  0.00000000  1.157407e-03
  0.08333333  0.25000000  0.16666667  1.157407e-03
  0.08333333  0.25000000  0.33333333  1.157407e-03
  0.08333333  0.25000000  0.50000000  1.157407e-03
  0.08333333  0.25000000  0.66666667  1.157407e-03
  0.08333333  0.25000000  0.83333333  1.157407e-03
  0.08333333  0.33333333  0.00000000  1.157407e-03
  0.08333333  0.33333333  0.16666667  1.157407e-03
  0.08333333  0.33333333  0.33333333  1.157407e-03
  0.08333333  0.33333333  0.50000000  1.157407e-03
  0.08333333  0.33333333  0.66666667  1.157407e-03
  0.08333333  0.33333333  0.83333333  1.157407e-03
  0.08333333  0.41666667  0.00000000  1.157407e-03
  0.08333333  0.41666667  0.16666667  1.157407e-03
  0.08333333  0.41666667  0.33333333  1.157407e-03
  0.08333333  0.41666667  0.50000000  1.157407e-03
  0.08333333  0.41666667  0.66666667  1.157407e-03
  0.08333333  0.41666667  0.83333333  1.157407e-03
  0.08333333  0.50000000  0.00000000  1.157407e-03
  0.08333333  0.50000000  0.16666667  1.157407e-03
  0.08333333  0.50000000  0.33333333  1.157407e-03
  0.08333333  0.50000000  0.50000000  1.157407e-03
  0.08333333  0.50000000  0.66666667  1.157407e-03
  0.08333333  0.50000000  0.83333333  1.157407e-03
  0.08333333  0.58333333  0.00000000  1.157407e-03
  0.08333333  0.58333333  0.16666667  1.157407e-03
  0.08333333  0.58333333  0.33333333  1.157407e-03
  0.08333333  0.58333333  0.50000000  1.157407e-03
  0.08333333  0.58333333  0.66666667  1.157407e-03
  0.08333333  0.58333333  0.83333333  1.157407e-03
  0.08333333  0.66666667  0.00000000  1.157407e-03
  0.08333333  0.66666667  0.16666667  1.157407e-03
  0.08333333  0.66666667  0.33333333  1.157407e-03
  0.08333333  0.66666667  0.50000000  1.157407e-03
  0.08333333  0.66666667  0.66666667  1.157407e-03
  0.08333333  0.66666667  0.83333333  1.157407e-03
  0.08333333  0.75000000  0.00000000  1.157407e-03
  0.08333333  0.75000000  0.16666667  1.157407e-03
  0.08333333  0.75000000  0.33333333  1.157407e-03
  0.08333333  0.75000000  0.50000000  1.157407e-03
  0.08333333  0.75000000  0.66666667  1.157407e-03
  0.08333333  0.75000000  0.83333333  1.157407e-03
  0.08333333  0.83333333  0.00000000  1.157407e-03
  0.08333333  0.83333333  0.16666667  1.157407e-03
  0.08333333  0.83333333  0.33333333  1.157407e-03
  0.08333333  0.83333333  0.50000000  1.157407e-03
  0.08333333  0.83333333  0.66666667  1.157407e-03
  0.08333333  0.83333333  0.83333333  1.157407e-03
  0.08333333  0.91666667  0.00000000  1.157407e-03
  0.08333333  0.91666667  0.16666667  1.157407e-03
  0.08333333  0.91666667  0.33333333  1.157407e-03
  0.08333333  0.91666667  0.50000000  1.157407e-03
  0.08333333  0.91666667  0.66666667  1.157407e-03
  0.08333333  0.91666667  0.83333333  1.157407e-03
  0.16666667  0.00000000  0.00000000  1.157407e-03
  0.16666667  0.00000000  0.16666667  1.157407e-03
  0.16666667  0.00000000  0.33333333  1.157407e-03
  0.16666667  0.00000000  0.50000000  1.157407e-03
  0.16666667  0.00000000  0.66666667  1.157407e-03
  0.16666667  0.00000000  0.83333333  1.157407e-03
  0.16666667  0.08333333  0.00000000  1.157407e-03
  0.16666667  0.08333333  0.16666667  1.157407e-03
  0.16666667  0.08333333  0.33333333  1.157407e-03
  0.16666667  0.08333333  0.50000000  1.157407e-03
  0.16666667  0.08333333  0.66666667  1.157407e-03
  0.16666667  0.08333333  0.83333333  1.157407e-03
  0.16666667  0.16666667  0.00000000  1.157407e-03
  0.16666667  0.16666667  0.16666667  1.157407e-03
  0.16666667  0.16666667  0.33333333  1.157407e-03
  0.16666667  0.16666667  0.50000000  1.157407e-03
  0.16666667  0.16666667  0.66666667  1.157407e-03
  0.16666667  0.16666667  0.83333333  1.157407e-03
  0.16666667  0.25000000  0.00000000  1.157407e-03
  0.16666667  0.25000000  0.16666667  1.157407e-03
  0.16666667  0.25000000  0.33333333  1.157407e-03
  0.16666667  0.25000000  0.50000000  1.157407e-03
  0.16666667  0.25000000  0.66666667  1.157407e-03
  0.16666667  0.25000000  0.83333333  1.157407e-03
  0.16666667  0.33333333  0.00000000  1.157407e-03
  0.16666667  0.33333333  0.16666667  1.157407e-03
  0.16666667  0.33333333  0.33333333  1.157407e-03
  0.16666667  0.33333333  0.50000000  1.157407e-03
  0.16666667  0.33333333  0.66666667  1.157407e-03
  0.16666667  0.33333333  0.83333333  1.157407e-03
  0.16666667  0.41666667  0.00000000  1.157407e-03
  0.16666667  0.41666667  0.16666667  1.157407e-03
  0.16666667  0.41666667  0.33333333  1.157407e-03
  0.16666667  0.41666667  0.50000000  1.157407e-03
  0.16666667  0.41666667  0.66666667  1.157407e-03
  0.16666667  0.41666667  0.83333333  1.157407e-03
  0.16666667  0.50000000  0.00000000  1.157407e-03
  0.16666667  0.50000000  0.16666667  1.157407e-03
  0.16666667  0.50000000  0.33333333  1.157407e-03
  0.16666667  0.50000000  0.50000000  1.157407e-03
  0.16666667  0.50000000  0.66666667  1.157407e-03
  0.16666667  0.50000000  0.83333333  1.157407e-03
  0.16666667  0.58333333  0.00000000  1.157407e-03
  0.16666667  0.58333333  0.16666667  1.157407e-03
  0.16666667  0.58333333  0.33333333  1.157407e-03
  0.16666667  0.58333333  0.50000000  1.157407e-03
  0.16666667  0.58333333  0.66666667  1.157407e-03
  0.16666667  0.58333333  0.83333333  1.157407e-03
  0.16666667  0.66666667  0.00000000  1.157407e-03
  0.16666667  0.66666667  0.16666667  1.157407e-03
  0.16666667  0.66666667  0.33333333  1.157407e-03
  0.16666667  0.66666667  0.50000000  1.157407e-03
  0.16666667  0.66666667  0.66666667  1.157407e-03
  0.16666667  0.66666667  0.83333333  1.157407e-03
  0.16666667  0.75000000  0.00000000  1.157407e-03
  0.16666667  0.75000000  0.16666667  1.157407e-03
  0.16666667  0.75000000  0.33333333  1.157407e-03
  0.16666667  0.75000000  0.50000000  1.157407e-03
  0.16666667  0.75000000  0.66666667  1.157407e-03
  0.16666667  0.75000000  0.83333333  1.157407e-03
  0.16666667  0.83333333  0.00000000  1.157407e-03
  0.16666667  0.83333333  0.16666667  1.157407e-03
  0.16666667  0.83333333  0.33333333  1.157407e-03
  0.16666667  0.83333333  0.50000000  1.157407e-03
  0.16666667  0.83333333  0.66666667  1.157407e-03
  0.16666667  0.83333333  0.83333333  1.157407e-03
  0.16666667  0.91666667  0.00000000  1.157407e-03
  0.16666667  0.91666667  0.16666667  1.157407e-03
  0.16666667  0.91666667  0.33333333  1.157407e-03
  0.16666667  0.91666667  0.50000000  1.157407e-03
  0.16666667  0.91666667  0.66666667  1.157407e-03
  0.16666667  0.91666667  0.83333333  1.157407e-03
  0.25000000  0.00000000  0.00000000  1.157407e-03
  0.25000000  0.00000000  0.16666667  1.157407e-03
  0.25000000  0.00000000  0.33333333  1.157407e-03
  0.25000000  0.00000000  0.50000000  1.157407e-03
  0.25000000  0.00000000  0.66666667  1.157407e-03
  0.25000000  0.00000000  0.83333333  1.157407e-03
  0.25000000  0.08333333  0.00000000  1.157407e-03
  0.25000000  0.08333333  0.16666667  1.157407e-03
  0.25000000  0.08333333  0.33333333  1.157407e-03
  0.25000000  0.08333333  0.50000000  1.157407e-03
  0.25000000  0.08333333  0.66666667  1.157407e-03
  0.25000000  0.08333333  0.83333333  1.157407e-03
  0.25000000  0.16666667  0.00000000  1.157407e-03
  0.25000000  0.16666667  0.16666667  1.157407e-03
  0.25000000  0.16666667  0.33333333  1.157407e-03
  0.25000000  0.16666667  0.50000000  1.157407e-03
  0.25000000  0.16666667  0.66666667  1.157407e-03
  0.25000000  0.16666667  0.83333333  1.157407e-03
  0.25000000  0.25000000  0.00000000  1.157407e-03
  0.25000000  0.25000000  0.16666667  1.157407e-03
  0.25000000  0.25000000  0.33333333  1.157407e-03
  0.25000000  0.25000000  0.50000000  1.157407e-03
  0.25000000  0.25000000  0.66666667  1.157407e-03
  0.25000000  0.25000000  0.83333333  1.157407e-03
  0.25000000  0.33333333  0.00000000  1.157407e-03
  0.25000000  0.33333333  0.16666667  1.157407e-03
  0.25000000  0.33333333  0.33333333  1.157407e-03
  0.25000000  0.33333333  0.50000000  1.157407e-03
  0.25000000  0.33333333  0.66666667  1.157407e-03
  0.25000000  0.33333333  0.83333333  1.157407e-03
  0.25000000  0.41666667  0.00000000  1.157407e-03
  0.25000000  0.41666667  0.16666667  1.157407e-03
  0.25000000  0.41666667  0.33333333  1.157407e-03
  0.25000000  0.41666667  0.50000000  1.157407e-03
  0.25000000  0.41666667  0.66666667  1.157407e-03
  0.25000000  0.41666667  0.83333333  1.157407e-03
  0.25000000  0.50000000  0.00000000  1.157407e-03
  0.25000000  0.50000000  0.16666667  1.157407e-03
  0.25000000  0.50000000  0.33333333  1.157407e-03
  0.25000000  0.50000000  0.50000000  1.157407e-03
  0.25000000  0.50000000  0.66666667  1.157407e-03
  0.25000000  0.50000000  0.83333333  1.157407e-03
  0.25000000  0.58333333  0.00000000  1.157407e-03
  0.25000000  0.58333333  0.16666667  1.157407e-03
  0.25000000  0.58333333  0.33333333  1.157407e-03
  0.25000000  0.58333333  0.50000000  1.157407e-03
  0.25000000  0.58333333  0.66666667  1.157407e-03
  0.25000000  0.58333333  0.83333333  1.157407e-03
  0.25000000  0.66666667  0.00000000  1.157407e-03
  0.25000000  0.66666667  0.16666667  1.157407e-03
  0.25000000  0.66666667  0.33333333  1.157407e-03
  0.25000000  0.66666667  0.50000000  1.157407e-03
  0.25000000  0.66666667  0.66666667  1.157407e-03
  0.25000000  0.66666667  0.83333333  1.157407e-03
  0.25000000  0.75000000  0.00000000  1.157407e-03
  0.25000000  0.75000000  0.16666667  1.157407e-03
  0.25000000  0.75000000  0.33333333  1.157407e-03
  0.25000000  0.75000000  0.50000000  1.157407e-03
  0.25000000  0.75000000  0.66666667  1.157407e-03
  0.25000000  0.75000000  0.83333333  1.157407e-03
  0.25000000  0.83333333  0.00000000  1.157407e-03
  0.25000000  0.83333333  0.16666667  1.157407e-03
  0.25000000  0.83333333  0.33333333  1.157407e-03
  0.25000000  0.83333333  0.50000000  1.157407e-03
  0.25000000  0.83333333  0.66666667  1.157407e-03
  0.25000000  0.83333333  0.83333333  1.157407e-03
  0.25000000  0.91666667  0.00000000  1.157407e-03
  0.25000000  0.91666667  0.16666667  1.157407e-03
  0.25000000  0.91666667  0.33333333  1.157407e-03
  0.25000000  0.91666667  0.50000000  1.157407e-03
  0.25000000  0.91666667  0.66666667  1.157407e-03
  0.25000000  0.91666667  0.83333333  1.157407e-03
  0.33333333  0.00000000  0.00000000  1.157407e-03
  0.33333333  0.00000000  0.16666667  1.157407e-03
  0.33333333  0.00000000  0.33333333  1.157407e-03
  0.33333333  0.00000000  0.50000000  1.157407e-03
  0.33333333  0.00000000  0.66666667  1.157407e-03
  0.33333333  0.00000000  0.83333333  1.157407e-03
  0.33333333  0.08333333  0.00000000  1.157407e-03
  0.33333333  0.08333333  0.16666667  1.157407e-03
  0.33333333  0.08333333  0.33333333  1.157407e-03
  0.33333333  0.08333333  0.50000000  1.157407e-03
  0.33333333  0.08333333  0.66666667  1.157407e-03
  0.33333333  0.08333333  0.83333333  1.157407e-03
  0.33333333  0.16666667  0.00000000  1.157407e-03
  0.33333333  0.16666667  0.16666667  1.157407e-03
  0.33333333  0.16666667  0.33333333  1.157407e-03
  0.33333333  0.16666667  0.50000000  1.157407e-03
  0.33333333  0.16666667  0.66666667  1.157407e-03
  0.33333333  0.16666667  0.83333333  1.157407e-03
  0.33333333  0.25000000  0.00000000  1.157407e-03
  0.33333333  0.25000000  0.16666667  1.157407e-03
  0.33333333  0.25000000  0.33333333  1.157407e-03
  0.33333333  0.25000000  0.50000000  1.157407e-03
  0.33333333  0.25000000  0.66666667  1.157407e-03
  0.33333333  0.25000000  0.83333333  1.157407e-03
  0.33333333  0.33333333  0.00000000  1.157407e-03
  0.33333333  0.33333333  0.16666667  1.157407e-03
  0.33333333  0.33333333  0.33333333  1.157407e-03
  0.33333333  0.33333333  0.50000000  1.157407e-03
  0.33333333  0.33333333  0.66666667  1.157407e-03
  0.33333333  0.33333333  0.83333333  1.157407e-03
  0.33333333  0.41666667  0.00000000  1.157407e-03
  0.33333333  0.41666667  0.16666667  1.157407e-03
  0.33333333  0.41666667  0.33333333  1.157407e-03
  0.33333333  0.41666667  0.50000000  1.157407e-03
  0.33333333  0.41666667  0.66666667  1.157407e-03
  0.33333333  0.41666667  0.83333333  1.157407e-03
  0.33333333  0.50000000  0.00000000  1.157407e-03
  0.33333333  0.50000000  0.16666667  1.157407e-03
  0.33333333  0.50000000  0.33333333  1.157407e-03
  0.33333333  0.50000000  0.50000000  1.157407e-03
  0.33333333  0.50000000  0.66666667  1.157407e-03
  0.33333333  0.50000000  0.83333333  1.157407e-03
  0.33333333  0.58333333  0.00000000  1.157407e-03
  0.33333333  0.58333333  0.16666667  1.157407e-03
  0.33333333  0.58333333  0.33333333  1.157407e-03
  0.33333333  0.58333333  0.50000000  1.157407e-03
  0.33333333  0.58333333  0.66666667  1.157407e-03
  0.33333333  0.58333333  0.83333333  1.157407e-03
  0.33333333  0.66666667  0.00000000  1.157407e-03
  0.33333333  0.66666667  0.16666667  1.157407e-03
  0.33333333  0.66666667  0.33333333  1.157407e-03
  0.33333333  0.66666667  0.50000000  1.157407e-03
  0.33333333  0.66666667  0.66666667  1.157407e-03
  0.33333333  0.66666667  0.83333333  1.157407e-03
  0.33333333  0.75000000  0.00000000  1.157407e-03
  0.33333333  0.75000000  0.16666667  1.157407e-03
  0.33333333  0.75000000  0.33333333  1.157407e-03
  0.33333333  0.75000000  0.50000000  1.157407e-03
  0.33333333  0.75000000  0.66666667  1.157407e-03
  0.33333333  0.75000000  0.83333333  1.157407e-03
  0.33333333  0.83333333  0.00000000  1.157407e-03
  0.33333333  0.83333333  0.16666667  1.157407e-03
  0.33333333  0.83333333  0.33333333  1.157407e-03
  0.33333333  0.83333333  0.50000000  1.157407e-03
  0.33333333  0.83333333  0.66666667  1.157407e-03
  0.33333333  0.83333333  0.83333333  1.157407e-03
  0.33333333  0.91666667  0.00000000  1.157407e-03
  0.33333333  0.91666667  0.16666667  1.157407e-03
  0.33333333  0.91666667  0.33333333  1.157407e-03
  0.33333333  0.91666667  0.50000000  1.157407e-03
  0.33333333  0.91666667  0.66666667  1.157407e-03
  0.33333333  0.91666667  0.83333333  1.157407e-03
  0.41666667  0.00000000  0.00000000  1.157407e-03
  0.41666667  0.00000000  0.16666667  1.157407e-03
  0.41666667  0.00000000  0.33333333  1.157407e-03
  0.41666667  0.00000000  0.50000000  1.157407e-03
  0.41666667  0.00000000  0.66666667  1.157407e-03
  0.41666667  0.00000000  0.83333333  1.157407e-03
  0.41666667  0.08333333  0.00000000  1.157407e-03
  0.41666667  0.08333333  0.16666667  1.157407e-03
  0.41666667  0.08333333  0.33333333  1.157407e-03
  0.41666667  0.08333333  0.50000000  1.157407e-03
  0.41666667  0.08333333  0.66666667  1.157407e-03
  0.41666667  0.08333333  0.83333333  1.157407e-03
  0.41666667  0.16666667  0.00000000  1.157407e-03
  0.41666667  0.16666667  0.16666667  1.157407e-03
  0.41666667  0.16666667  0.33333333  1.157407e-03
  0.41666667  0.16666667  0.50000000  1.157407e-03
  0.41666667  0.16666667  0.66666667  1.157407e-03
  0.41666667  0.16666667  0.83333333  1.157407e-03
  0.41666667  0.25000000  0.00000000  1.157407e-03
  0.41666667  0.25000000  0.16666667  1.157407e-03
  0.41666667  0.25000000  0.33333333  1.157407e-03
  0.41666667  0.25000000  0.50000000  1.157407e-03
  0.41666667  0.25000000  0.66666667  1.157407e-03
  0.41666667  0.25000000  0.83333333  1.157407e-03
  0.41666667  0.33333333  0.00000000  1.157407e-03
  0.41666667  0.33333333  0.16666667  1.157407e-03
  0.41666667  0.33333333  0.33333333  1.157407e-03
  0.41666667  0.33333333  0.50000000  1.157407e-03
  0.41666667  0.33333333  0.66666667  1.157407e-03
  0.41666667  0.33333333  0.83333333  1.157407e-03
  0.41666667  0.41666667  0.00000000  1.157407e-03
  0.41666667  0.41666667  0.16666667  1.157407e-03
  0.41666667  0.41666667  0.33333333  1.157407e-03
  0.41666667  0.41666667  0.50000000  1.157407e-03
  0.41666667  0.41666667  0.66666667  1.157407e-03
  0.41666667  0.41666667  0.83333333  1.157407e-03
  0.41666667  0.50000000  0.00000000  1.157407e-03
  0.41666667  0.50000000  0.16666667  1.157407e-03
  0.41666667  0.50000000  0.33333333  1.157407e-03
  0.41666667  0.50000000  0.50000000  1.157407e-03
  0.41666667  0.50000000  0.66666667  1.157407e-03
  0.41666667  0.50000000  0.83333333  1.157407e-03
  0.41666667  0.58333333  0.00000000  1.157407e-03
  0.41666667  0.58333333  0.16666667  1.157407e-03
  0.41666667  0.58333333  0.33333333  1.157407e-03
  0.41666667  0.58333333  0.50000000  1.157407e-03
  0.41666667  0.58333333  0.66666667  1.157407e-03
  0.41666667  0.58333333  0.83333333  1.157407e-03
  0.41666667  0.66666667  0.00000000  1.157407e-03
  0.41666667  0.66666667  0.16666667  1.157407e-03
  0.41666667  0.66666667  0.33333333  1.157407e-03
  0.41666667  0.66666667  0.50000000  1.157407e-03
  0.41666667  0.66666667  0.66666667  1.157407e-03
  0.41666667  0.66666667  0.83333333  1.157407e-03
  0.41666667  0.75000000  0.00000000  1.157407e-03
  0.41666667  0.75000000  0.16666667  1.157407e-03
  0.41666667  0.75000000  0.33333333  1.157407e-03
  0.41666667  0.75000000  0.50000000  1.157407e-03
  0.41666667  0.75000000  0.66666667  1.157407e-03
  0.41666667  0.75000000  0.83333333  1.157407e-03
  0.41666667  0.83333333  0.00000000  1.157407e-03
  0.41666667  0.83333333  0.16666667  1.157407e-03
  0.41666667  0.83333333  0.33333333  1.157407e-03
  0.41666667  0.83333333  0.50000000  1.157407e-03
  0.41666667  0.83333333  0.66666667  1.157407e-03
  0.41666667  0.83333333  0.83333333  1.157407e-03
  0.41666667  0.91666667  0.00000000  1.157407e-03
  0.41666667  0.91666667  0.16666667  1.157407e-03
  0.41666667  0.91666667  0.33333333  1.157407e-03
  0.41666667  0.91666667  0.50000000  1.157407e-03
  0.41666667  0.91666667  0.66666667  1.157407e-03
  0.41666667  0.91666667  0.83333333  1.157407e-03
  0.50000000  0.00000000  0.00000000  1.157407e-03
  0.50000000  0.00000000  0.16666667  1.157407e-03
  0.50000000  0.00000000  0.33333333  1.157407e-03
  0.50000000  0.00000000  0.50000000  1.157407e-03
  0.50000000  0.00000000  0.66666667  1.157407e-03
  0.50000000  0.00000000  0.83333333  1.157407e-03
  0.50000000  0.08333333  0.00000000  1.157407e-03
  0.50000000  0.08333333  0.16666667  1.157407e-03
  0.50000000  0.08333333  0.33333333  1.157407e-03
  0.50000000  0.08333333  0.50000000  1.157407e-03
  0.50000000  0.08333333  0.66666667  1.157407e-03
  0.50000000  0.08333333  0.83333333  1.157407e-03
  0.50000000  0.16666667  0.00000000  1.157407e-03
  0.50000000  0.16666667  0.16666667  1.157407e-03
  0.50000000  0.16666667  0.33333333  1.157407e-03
  0.50000000  0.16666667  0.50000000  1.157407e-03
  0.50000000  0.16666667  0.66666667  1.157407e-03
  0.50000000  0.16666667  0.83333333  1.157407e-03
  0.50000000  0.25000000  0.00000000  1.157407e-03
  0.50000000  0.25000000  0.16666667  1.157407e-03
  0.50000000  0.25000000  0.33333333  1.157407e-03
  0.50000000  0.25000000  0.50000000  1.157407e-03
  0.50000000  0.25000000  0.66666667  1.157407e-03
  0.50000000  0.25000000  0.83333333  1.157407e-03
  0.50000000  0.33333333  0.00000000  1.157407e-03
  0.50000000  0.33333333  0.16666667  1.157407e-03
  0.50000000  0.33333333  0.33333333  1.157407e-03
  0.50000000  0.33333333  0.50000000  1.157407e-03
  0.50000000  0.33333333  0.66666667  1.157407e-03
  0.50000000  0.33333333  0.83333333  1.157407e-03
  0.50000000  0.41666667  0.00000000  1.157407e-03
  0.50000000  0.41666667  0.16666667  1.157407e-03
  0.50000000  0.41666667  0.33333333  1.157407e-03
  0.50000000  0.41666667  0.50000000  1.157407e-03
  0.50000000  0.41666667  0.66666667  1.157407e-03
  0.50000000  0.41666667  0.83333333  1.157407e-03
  0.50000000  0.50000000  0.00000000  1.157407e-03
  0.50000000  0.50000000  0.16666667  1.157407e-03
  0.50000000  0.50000000  0.33333333  1.157407e-03
  0.50000000  0.50000000  0.50000000  1.157407e-03
  0.50000000  0.50000000  0.66666667  1.157407e-03
  0.50000000  0.50000000  0.83333333  1.157407e-03
  0.50000000  0.58333333  0.00000000  1.157407e-03
  0.50000000  0.58333333  0.16666667  1.157407e-03
  0.50000000  0.58333333  0.33333333  1.157407e-03
  0.50000000  0.58333333  0.50000000  1.157407e-03
  0.50000000  0.58333333  0.66666667  1.157407e-03
  0.50000000  0.58333333  0.83333333  1.157407e-03
  0.50000000  0.66666667  0.00000000  1.157407e-03
  0.50000000  0.66666667  0.16666667  1.157407e-03
  0.50000000  0.66666667  0.33333333  1.157407e-03
  0.50000000  0.66666667  0.50000000  1.157407e-03
  0.50000000  0.66666667  0.66666667  1.157407e-03
  0.50000000  0.66666667  0.83333333  1.157407e-03
  0.50000000  0.75000000  0.00000000  1.157407e-03
  0.50000000  0.75000000  0.16666667  1.157407e-03
  0.50000000  0.75000000  0.33333333  1.157407e-03
  0.50000000  0.75000000  0.50000000  1.157407e-03
  0.50000000  0.75000000  0.66666667  1.157407e-03
  0.50000000  0.75000000  0.83333333  1.157407e-03
  0.50000000  0.83333333  0.00000000  1.157407e-03
  0.50000000  0.83333333  0.16666667  1.157407e-03
  0.50000000  0.83333333  0.33333333  1.157407e-03
  0.50000000  0.83333333  0.50000000  1.157407e-03
  0.50000000  0.83333333  0.66666667  1.157407e-03
  0.50000000  0.83333333  0.83333333  1.157407e-03
  0.50000000  0.91666667  0.00000000  1.157407e-03
  0.50000000  0.91666667  0.16666667  1.157407e-03
  0.50000000  0.91666667  0.33333333  1.157407e-03
  0.50000000  0.91666667  0.50000000  1.157407e-03
  0.50000000  0.91666667  0.66666667  1.157407e-03
  0.50000000  0.91666667  0.83333333  1.157407e-03
  0.58333333  0.00000000  0.00000000  1.157407e-03
  0.58333333  0.00000000  0.16666667  1.157407e-03
  0.58333333  0.00000000  0.33333333  1.157407e-03
  0.58333333  0.00000000  0.50000000  1.157407e-03
  0.58333333  0.00000000  0.66666667  1.157407e-03
  0.58333333  0.00000000  0.83333333  1.157407e-03
  0.58333333  0.08333333  0.00000000  1.157407e-03
  0.58333333  0.08333333  0.16666667  1.157407e-03
  0.58333333  0.08333333  0.33333333  1.157407e-03
  0.58333333  0.08333333  0.50000000  1.157407e-03
  0.58333333  0.08333333  0.66666667  1.157407e-03
  0.58333333  0.08333333  0.83333333  1.157407e-03
  0.58333333  0.16666667  0.00000000  1.157407e-03
  0.58333333  0.16666667  0.16666667  1.157407e-03
  0.58333333  0.16666667  0.33333333  1.157407e-03
  0.58333333  0.16666667  0.50000000  1.157407e-03
  0.58333333  0.16666667  0.66666667  1.157407e-03
  0.58333333  0.16666667  0.83333333  1.157407e-03
  0.58333333  0.25000000  0.00000000  1.157407e-03
  0.58333333  0.25000000  0.16666667  1.157407e-03
  0.58333333  0.25000000  0.33333333  1.157407e-03
  0.58333333  0.25000000  0.50000000  1.157407e-03
  0.58333333  0.25000000  0.66666667  1.157407e-03
  0.58333333  0.25000000  0.83333333  1.157407e-03
  0.58333333  0.33333333  0.00000000  1.157407e-03
  0.58333333  0.33333333  0.16666667  1.157407e-03
  0.58333333  0.33333333  0.33333333  1.157407e-03
  0.58333333  0.33333333  0.50000000  1.157407e-03
  0.58333333  0.33333333  0.66666667  1.157407e-03
  0.58333333  0.33333333  0.83333333  1.157407e-03
  0.58333333  0.41666667  0.00000000  1.157407e-03
  0.58333333  0.41666667  0.16666667  1.157407e-03
  0.58333333  0.41666667  0.33333333  1.157407e-03
  0.58333333  0.41666667  0.50000000  1.157407e-03
  0.58333333  0.41666667  0.66666667  1.157407e-03
  0.58333333  0.41666667  0.83333333  1.157407e-03
  0.58333333  0.50000000  0.00000000  1.157407e-03
  0.58333333  0.50000000  0.16666667  1.157407e-03
  0.58333333  0.50000000  0.33333333  1.157407e-03
  0.58333333  0.50000000  0.50000000  1.157407e-03
  0.58333333  0.50000000  0.66666667  1.157407e-03
  0.58333333  0.50000000  0.83333333  1.157407e-03
  0.58333333  0.58333333  0.00000000  1.157407e-03
  0.58333333  0.58333333  0.16666667  1.157407e-03
  0.58333333  0.58333333  0.33333333  1.157407e-03
  0.58333333  0.58333333  0.50000000  1.157407e-03
  0.58333333  0.58333333  0.66666667  1.157407e-03
  0.58333333  0.58333333  0.83333333  1.157407e-03
  0.58333333  0.66666667  0.00000000  1.157407e-03
  0.58333333  0.66666667  0.16666667  1.157407e-03
  0.58333333  0.66666667  0.33333333  1.157407e-03
  0.58333333  0.66666667  0.50000000  1.157407e-03
  0.58333333  0.66666667  0.66666667  1.157407e-03
  0.58333333  0.66666667  0.83333333  1.157407e-03
  0.58333333  0.75000000  0.00000000  1.157407e-03
  0.58333333  0.75000000  0.16666667  1.157407e-03