!Omega is the spread of the WF
!Omega_I is the gause invariant term
!The Marzari Vanderbilt (MV) method minimizes the gauge dependant term

!The two main ingredientes are:
!M_mn: The overlaps between the cell periodic part of the Bloch states
!A_mn: (As starting guess) The projections of Bloch states into trial localized orbitals

exclude_bands   = 1-84
num_bands       = 96		!number of bands passed to the code

spinors			= true
num_wann        = 66		!number of WF
!select_projections = 1-52

num_iter        = 100		!number of iterations of the minimization (default 100)
iprint			= 2
conv_tol 		= 1.0E-10
conv_window 	= 4
!restart         = default   !Restart from last .chk file
num_dump_cycles = 20        !Write data for restart every # cycles
dis_mix_ratio = 0.5         !Default of mixing ratio during disentaglement is 0.5

dis_win_min     = 8.0472		!top of the outer energy window
dis_win_max     = 24.2472		!top of the outer energy window
dis_froz_min    = 13.5472		!Top of the inner (frozen) energy window
dis_froz_max    = 17.5472	    !Top of the inner (frozen) energy window
!dis_num_iter    =  100		!Number of iterations for the minimization of Omega_I
!dis_mix_ratio   = 1.0		!Mixing ratio for the Omeaga_I minimization

!fermi_energy = 15.5472		!for the .bxsf file that has the fermi surface
!fermi_surface_plot = .true.	!Whether to calculate the fermi surface
bands_plot = .true.			!Whether to calculate a bandstructure
use_ws_distance= .true.		!improves interpolation of the K-space Hamiltonian applying traslation to each WF
							!(suggested for write_hr=.true.)
write_hr= .true.			!Write Hamiltonian matrix in the WF basis
write_tb= .true.			!Lattice vectors, Hamiltonian and position operator matrices in the WF basis
write_xyz = .true.			!Atomic positions and final Wannier centres

!*****SYSTEM

BEGIN UNIT_CELL_CART		!cell lattice vectors
ang
   4.998029453  -0.000000000  -0.000000000
  -2.499014732   4.328420480  -0.000000000
  -0.000000000  -0.000000000   6.820731213
END UNIT_CELL_CART

BEGIN ATOMS_FRAC			!atomic positions
Nb            0.5000000000        0.5000000000        0.8333333300
Nb            0.5000000000        0.0000000000        0.5000000000
Nb            0.0000000000        0.5000000000        0.1666666700
Ge            0.6716652770        0.8358326385        0.1666666700
Ge            0.8358326385        0.6716652770        0.5000000000
Ge            0.8358326385        0.1641673615        0.8333333300
Ge            0.3283347230        0.1641673615        0.1666666700
Ge            0.1641673615        0.3283347230        0.5000000000
Ge            0.1641673615        0.8358326385        0.8333333300
END ATOMS_FRAC

BEGIN PROJECTIONS			!set of localised functions used for initial guess
Ge:p
Nb:d
END PROJECTIONS

!*****KPOINTS

BEGIN KPOINT_PATH			!the path in the K-space, values in fractional coordinates
G   0.000   0.000   0.000    M   0.500   0.000   0.000
M   0.500   0.000   0.000    K   0.33333333  0.33333333  0.000
K   0.33333333  0.33333333  0.000    G   0.000   0.000   0.000
G   0.000   0.000   0.000    A   0.000   0.000   0.500
A   0.000   0.000   0.500    L   0.500   0.000   0.500
L   0.500   0.000   0.500    H   0.33333333  0.33333333  0.500
H   0.33333333  0.33333333  0.500    A   0.000   0.000   0.500
L   0.500   0.000   0.500    M   0.500   0.000   0.000
K   0.33333333  0.33333333  0.000    H   0.33333333  0.33333333  0.500
END KPOINT_PATH

mp_grid : 12 12 10				!Dimensions of the Monkhorst-Pack grid
BEGIN KPOINTS				!List of k-points of the Monkhorst-Pack grid
  0.00000000  0.00000000  0.00000000  6.944444e-04
  0.00000000  0.00000000  0.10000000  6.944444e-04
  0.00000000  0.00000000  0.20000000  6.944444e-04
  0.00000000  0.00000000  0.30000000  6.944444e-04
  0.00000000  0.00000000  0.40000000  6.944444e-04
  0.00000000  0.00000000  0.50000000  6.944444e-04
  0.00000000  0.00000000  0.60000000  6.944444e-04
  0.00000000  0.00000000  0.70000000  6.944444e-04
  0.00000000  0.00000000  0.80000000  6.944444e-04
  0.00000000  0.00000000  0.90000000  6.944444e-04
  0.00000000  0.08333333  0.00000000  6.944444e-04
  0.00000000  0.08333333  0.10000000  6.944444e-04
  0.00000000  0.08333333  0.20000000  6.944444e-04
  0.00000000  0.08333333  0.30000000  6.944444e-04
  0.00000000  0.08333333  0.40000000  6.944444e-04
  0.00000000  0.08333333  0.50000000  6.944444e-04
  0.00000000  0.08333333  0.60000000  6.944444e-04
  0.00000000  0.08333333  0.70000000  6.944444e-04
  0.00000000  0.08333333  0.80000000  6.944444e-04
  0.00000000  0.08333333  0.90000000  6.944444e-04
  0.00000000  0.16666667  0.00000000  6.944444e-04
  0.00000000  0.16666667  0.10000000  6.944444e-04
  0.00000000  0.16666667  0.20000000  6.944444e-04
  0.00000000  0.16666667  0.30000000  6.944444e-04
  0.00000000  0.16666667  0.40000000  6.944444e-04
  0.00000000  0.16666667  0.50000000  6.944444e-04
  0.00000000  0.16666667  0.60000000  6.944444e-04
  0.00000000  0.16666667  0.70000000  6.944444e-04
  0.00000000  0.16666667  0.80000000  6.944444e-04
  0.00000000  0.16666667  0.90000000  6.944444e-04
  0.00000000  0.25000000  0.00000000  6.944444e-04
  0.00000000  0.25000000  0.10000000  6.944444e-04
  0.00000000  0.25000000  0.20000000  6.944444e-04
  0.00000000  0.25000000  0.30000000  6.944444e-04
  0.00000000  0.25000000  0.40000000  6.944444e-04
  0.00000000  0.25000000  0.50000000  6.944444e-04
  0.00000000  0.25000000  0.60000000  6.944444e-04
  0.00000000  0.25000000  0.70000000  6.944444e-04
  0.00000000  0.25000000  0.80000000  6.944444e-04
  0.00000000  0.25000000  0.90000000  6.944444e-04
  0.00000000  0.33333333  0.00000000  6.944444e-04
  0.00000000  0.33333333  0.10000000  6.944444e-04
  0.00000000  0.33333333  0.20000000  6.944444e-04
  0.00000000  0.33333333  0.30000000  6.944444e-04
  0.00000000  0.33333333  0.40000000  6.944444e-04
  0.00000000  0.33333333  0.50000000  6.944444e-04
  0.00000000  0.33333333  0.60000000  6.944444e-04
  0.00000000  0.33333333  0.70000000  6.944444e-04
  0.00000000  0.33333333  0.80000000  6.944444e-04
  0.00000000  0.33333333  0.90000000  6.944444e-04
  0.00000000  0.41666667  0.00000000  6.944444e-04
  0.00000000  0.41666667  0.10000000  6.944444e-04
  0.00000000  0.41666667  0.20000000  6.944444e-04
  0.00000000  0.41666667  0.30000000  6.944444e-04
  0.00000000  0.41666667  0.40000000  6.944444e-04
  0.00000000  0.41666667  0.50000000  6.944444e-04
  0.00000000  0.41666667  0.60000000  6.944444e-04
  0.00000000  0.41666667  0.70000000  6.944444e-04
  0.00000000  0.41666667  0.80000000  6.944444e-04
  0.00000000  0.41666667  0.90000000  6.944444e-04
  0.00000000  0.50000000  0.00000000  6.944444e-04
  0.00000000  0.50000000  0.10000000  6.944444e-04
  0.00000000  0.50000000  0.20000000  6.944444e-04
  0.00000000  0.50000000  0.30000000  6.944444e-04
  0.00000000  0.50000000  0.40000000  6.944444e-04
  0.00000000  0.50000000  0.50000000  6.944444e-04
  0.00000000  0.50000000  0.60000000  6.944444e-04
  0.00000000  0.50000000  0.70000000  6.944444e-04
  0.00000000  0.50000000  0.80000000  6.944444e-04
  0.00000000  0.50000000  0.90000000  6.944444e-04
  0.00000000  0.58333333  0.00000000  6.944444e-04
  0.00000000  0.58333333  0.10000000  6.944444e-04
  0.00000000  0.58333333  0.20000000  6.944444e-04
  0.00000000  0.58333333  0.30000000  6.944444e-04
  0.00000000  0.58333333  0.40000000  6.944444e-04
  0.00000000  0.58333333  0.50000000  6.944444e-04
  0.00000000  0.58333333  0.60000000  6.944444e-04
  0.00000000  0.58333333  0.70000000  6.944444e-04
  0.00000000  0.58333333  0.80000000  6.944444e-04
  0.00000000  0.58333333  0.90000000  6.944444e-04
  0.00000000  0.66666667  0.00000000  6.944444e-04
  0.00000000  0.66666667  0.10000000  6.944444e-04
  0.00000000  0.66666667  0.20000000  6.944444e-04
  0.00000000  0.66666667  0.30000000  6.944444e-04
  0.00000000  0.66666667  0.40000000  6.944444e-04
  0.00000000  0.66666667  0.50000000  6.944444e-04
  0.00000000  0.66666667  0.60000000  6.944444e-04
  0.00000000  0.66666667  0.70000000  6.944444e-04
  0.00000000  0.66666667  0.80000000  6.944444e-04
  0.00000000  0.66666667  0.90000000  6.944444e-04
  0.00000000  0.75000000  0.00000000  6.944444e-04
  0.00000000  0.75000000  0.10000000  6.944444e-04
  0.00000000  0.75000000  0.20000000  6.944444e-04
  0.00000000  0.75000000  0.30000000  6.944444e-04
  0.00000000  0.75000000  0.40000000  6.944444e-04
  0.00000000  0.75000000  0.50000000  6.944444e-04
  0.00000000  0.75000000  0.60000000  6.944444e-04
  0.00000000  0.75000000  0.70000000  6.944444e-04
  0.00000000  0.75000000  0.80000000  6.944444e-04
  0.00000000  0.75000000  0.90000000  6.944444e-04
  0.00000000  0.83333333  0.00000000  6.944444e-04
  0.00000000  0.83333333  0.10000000  6.944444e-04
  0.00000000  0.83333333  0.20000000  6.944444e-04
  0.00000000  0.83333333  0.30000000  6.944444e-04
  0.00000000  0.83333333  0.40000000  6.944444e-04
  0.00000000  0.83333333  0.50000000  6.944444e-04
  0.00000000  0.83333333  0.60000000  6.944444e-04
  0.00000000  0.83333333  0.70000000  6.944444e-04
  0.00000000  0.83333333  0.80000000  6.944444e-04
  0.00000000  0.83333333  0.90000000  6.944444e-04
  0.00000000  0.91666667  0.00000000  6.944444e-04
  0.00000000  0.91666667  0.10000000  6.944444e-04
  0.00000000  0.91666667  0.20000000  6.944444e-04
  0.00000000  0.91666667  0.30000000  6.944444e-04
  0.00000000  0.91666667  0.40000000  6.944444e-04
  0.00000000  0.91666667  0.50000000  6.944444e-04
  0.00000000  0.91666667  0.60000000  6.944444e-04
  0.00000000  0.91666667  0.70000000  6.944444e-04
  0.00000000  0.91666667  0.80000000  6.944444e-04
  0.00000000  0.91666667  0.90000000  6.944444e-04
  0.08333333  0.00000000  0.00000000  6.944444e-04
  0.08333333  0.00000000  0.10000000  6.944444e-04
  0.08333333  0.00000000  0.20000000  6.944444e-04
  0.08333333  0.00000000  0.30000000  6.944444e-04
  0.08333333  0.00000000  0.40000000  6.944444e-04
  0.08333333  0.00000000  0.50000000  6.944444e-04
  0.08333333  0.00000000  0.60000000  6.944444e-04
  0.08333333  0.00000000  0.70000000  6.944444e-04
  0.08333333  0.00000000  0.80000000  6.944444e-04
  0.08333333  0.00000000  0.90000000  6.944444e-04
  0.08333333  0.08333333  0.00000000  6.944444e-04
  0.08333333  0.08333333  0.10000000  6.944444e-04
  0.08333333  0.08333333  0.20000000  6.944444e-04
  0.08333333  0.08333333  0.30000000  6.944444e-04
  0.08333333  0.08333333  0.40000000  6.944444e-04
  0.08333333  0.08333333  0.50000000  6.944444e-04
  0.08333333  0.08333333  0.60000000  6.944444e-04
  0.08333333  0.08333333  0.70000000  6.944444e-04
  0.08333333  0.08333333  0.80000000  6.944444e-04
  0.08333333  0.08333333  0.90000000  6.944444e-04
  0.08333333  0.16666667  0.00000000  6.944444e-04
  0.08333333  0.16666667  0.10000000  6.944444e-04
  0.08333333  0.16666667  0.20000000  6.944444e-04
  0.08333333  0.16666667  0.30000000  6.944444e-04
  0.08333333  0.16666667  0.40000000  6.944444e-04
  0.08333333  0.16666667  0.50000000  6.944444e-04
  0.08333333  0.16666667  0.60000000  6.944444e-04
  0.08333333  0.16666667  0.70000000  6.944444e-04
  0.08333333  0.16666667  0.80000000  6.944444e-04
  0.08333333  0.16666667  0.90000000  6.944444e-04
  0.08333333  0.25000000  0.00000000  6.944444e-04
  0.08333333  0.25000000  0.10000000  6.944444e-04
  0.08333333  0.25000000  0.20000000  6.944444e-04
  0.08333333  0.25000000  0.30000000  6.944444e-04
  0.08333333  0.25000000  0.40000000  6.944444e-04
  0.08333333  0.25000000  0.50000000  6.944444e-04
  0.08333333  0.25000000  0.60000000  6.944444e-04
  0.08333333  0.25000000  0.70000000  6.944444e-04
  0.08333333  0.25000000  0.80000000  6.944444e-04
  0.08333333  0.25000000  0.90000000  6.944444e-04
  0.08333333  0.33333333  0.00000000  6.944444e-04
  0.08333333  0.33333333  0.10000000  6.944444e-04
  0.08333333  0.33333333  0.20000000  6.944444e-04
  0.08333333  0.33333333  0.30000000  6.944444e-04
  0.08333333  0.33333333  0.40000000  6.944444e-04
  0.08333333  0.33333333  0.50000000  6.944444e-04
  0.08333333  0.33333333  0.60000000  6.944444e-04
  0.08333333  0.33333333  0.70000000  6.944444e-04
  0.08333333  0.33333333  0.80000000  6.944444e-04
  0.08333333  0.33333333  0.90000000  6.944444e-04
  0.08333333  0.41666667  0.00000000  6.944444e-04
  0.08333333  0.41666667  0.10000000  6.944444e-04
  0.08333333  0.41666667  0.20000000  6.944444e-04
  0.08333333  0.41666667  0.30000000  6.944444e-04
  0.08333333  0.41666667  0.40000000  6.944444e-04
  0.08333333  0.41666667  0.50000000  6.944444e-04
  0.08333333  0.41666667  0.60000000  6.944444e-04
  0.08333333  0.41666667  0.70000000  6.944444e-04
  0.08333333  0.41666667  0.80000000  6.944444e-04
  0.08333333  0.41666667  0.90000000  6.944444e-04
  0.08333333  0.50000000  0.00000000  6.944444e-04
  0.08333333  0.50000000  0.10000000  6.944444e-04
  0.08333333  0.50000000  0.20000000  6.944444e-04
  0.08333333  0.50000000  0.30000000  6.944444e-04
  0.08333333  0.50000000  0.40000000  6.944444e-04
  0.08333333  0.50000000  0.50000000  6.944444e-04
  0.08333333  0.50000000  0.60000000  6.944444e-04
  0.08333333  0.50000000  0.70000000  6.944444e-04
  0.08333333  0.50000000  0.80000000  6.944444e-04
  0.08333333  0.50000000  0.90000000  6.944444e-04
  0.08333333  0.58333333  0.00000000  6.944444e-04
  0.08333333  0.58333333  0.10000000  6.944444e-04
  0.08333333  0.58333333  0.20000000  6.944444e-04
  0.08333333  0.58333333  0.30000000  6.944444e-04
  0.08333333  0.58333333  0.40000000  6.944444e-04
  0.08333333  0.58333333  0.50000000  6.944444e-04
  0.08333333  0.58333333  0.60000000  6.944444e-04
  0.08333333  0.58333333  0.70000000  6.944444e-04
  0.08333333  0.58333333  0.80000000  6.944444e-04
  0.08333333  0.58333333  0.90000000  6.944444e-04
  0.08333333  0.66666667  0.00000000  6.944444e-04
  0.08333333  0.66666667  0.10000000  6.944444e-04
  0.08333333  0.66666667  0.20000000  6.944444e-04
  0.08333333  0.66666667  0.30000000  6.944444e-04
  0.08333333  0.66666667  0.40000000  6.944444e-04
  0.08333333  0.66666667  0.50000000  6.944444e-04
  0.08333333  0.66666667  0.60000000  6.944444e-04
  0.08333333  0.66666667  0.70000000  6.944444e-04
  0.08333333  0.66666667  0.80000000  6.944444e-04
  0.08333333  0.66666667  0.90000000  6.944444e-04
  0.08333333  0.75000000  0.00000000  6.944444e-04
  0.08333333  0.75000000  0.10000000  6.944444e-04
  0.08333333  0.75000000  0.20000000  6.944444e-04
  0.08333333  0.75000000  0.30000000  6.944444e-04
  0.08333333  0.75000000  0.40000000  6.944444e-04
  0.08333333  0.75000000  0.50000000  6.944444e-04
  0.08333333  0.75000000  0.60000000  6.944444e-04
  0.08333333  0.75000000  0.70000000  6.944444e-04
  0.08333333  0.75000000  0.80000000  6.944444e-04
  0.08333333  0.75000000  0.90000000  6.944444e-04
  0.08333333  0.83333333  0.00000000  6.944444e-04
  0.08333333  0.83333333  0.10000000  6.944444e-04
  0.08333333  0.83333333  0.20000000  6.944444e-04
  0.08333333  0.83333333  0.30000000  6.944444e-04
  0.08333333  0.83333333  0.40000000  6.944444e-04
  0.08333333  0.83333333  0.50000000  6.944444e-04
  0.08333333  0.83333333  0.60000000  6.944444e-04
  0.08333333  0.83333333  0.70000000  6.944444e-04
  0.08333333  0.83333333  0.80000000  6.944444e-04
  0.08333333  0.83333333  0.90000000  6.944444e-04
  0.08333333  0.91666667  0.00000000  6.944444e-04
  0.08333333  0.91666667  0.10000000  6.944444e-04
  0.08333333  0.91666667  0.20000000  6.944444e-04
  0.08333333  0.91666667  0.30000000  6.944444e-04
  0.08333333  0.91666667  0.40000000  6.944444e-04
  0.08333333  0.91666667  0.50000000  6.944444e-04
  0.08333333  0.91666667  0.60000000  6.944444e-04
  0.08333333  0.91666667  0.70000000  6.944444e-04
  0.08333333  0.91666667  0.80000000  6.944444e-04
  0.08333333  0.91666667  0.90000000  6.944444e-04
  0.16666667  0.00000000  0.00000000  6.944444e-04
  0.16666667  0.00000000  0.10000000  6.944444e-04
  0.16666667  0.00000000  0.20000000  6.944444e-04
  0.16666667  0.00000000  0.30000000  6.944444e-04
  0.16666667  0.00000000  0.40000000  6.944444e-04
  0.16666667  0.00000000  0.50000000  6.944444e-04
  0.16666667  0.00000000  0.60000000  6.944444e-04
  0.16666667  0.00000000  0.70000000  6.944444e-04
  0.16666667  0.00000000  0.80000000  6.944444e-04
  0.16666667  0.00000000  0.90000000  6.944444e-04
  0.16666667  0.08333333  0.00000000  6.944444e-04
  0.16666667  0.08333333  0.10000000  6.944444e-04
  0.16666667  0.08333333  0.20000000  6.944444e-04
  0.16666667  0.08333333  0.30000000  6.944444e-04
  0.16666667  0.08333333  0.40000000  6.944444e-04
  0.16666667  0.08333333  0.50000000  6.944444e-04
  0.16666667  0.08333333  0.60000000  6.944444e-04
  0.16666667  0.08333333  0.70000000  6.944444e-04
  0.16666667  0.08333333  0.80000000  6.944444e-04
  0.16666667  0.08333333  0.90000000  6.944444e-04
  0.16666667  0.16666667  0.00000000  6.944444e-04
  0.16666667  0.16666667  0.10000000  6.944444e-04
  0.16666667  0.16666667  0.20000000  6.944444e-04
  0.16666667  0.16666667  0.30000000  6.944444e-04
  0.16666667  0.16666667  0.40000000  6.944444e-04
  0.16666667  0.16666667  0.50000000  6.944444e-04
  0.16666667  0.16666667  0.60000000  6.944444e-04
  0.16666667  0.16666667  0.70000000  6.944444e-04
  0.16666667  0.16666667  0.80000000  6.944444e-04
  0.16666667  0.16666667  0.90000000  6.944444e-04
  0.16666667  0.25000000  0.00000000  6.944444e-04
  0.16666667  0.25000000  0.10000000  6.944444e-04
  0.16666667  0.25000000  0.20000000  6.944444e-04
  0.16666667  0.25000000  0.30000000  6.944444e-04
  0.16666667  0.25000000  0.40000000  6.944444e-04
  0.16666667  0.25000000  0.50000000  6.944444e-04
  0.16666667  0.25000000  0.60000000  6.944444e-04
  0.16666667  0.25000000  0.70000000  6.944444e-04
  0.16666667  0.25000000  0.80000000  6.944444e-04
  0.16666667  0.25000000  0.90000000  6.944444e-04
  0.16666667  0.33333333  0.00000000  6.944444e-04
  0.16666667  0.33333333  0.10000000  6.944444e-04
  0.16666667  0.33333333  0.20000000  6.944444e-04
  0.16666667  0.33333333  0.30000000  6.944444e-04
  0.16666667  0.33333333  0.40000000  6.944444e-04
  0.16666667  0.33333333  0.50000000  6.944444e-04
  0.16666667  0.33333333  0.60000000  6.944444e-04
  0.16666667  0.33333333  0.70000000  6.944444e-04
  0.16666667  0.33333333  0.80000000  6.944444e-04
  0.16666667  0.33333333  0.90000000  6.944444e-04
  0.16666667  0.41666667  0.00000000  6.944444e-04
  0.16666667  0.41666667  0.10000000  6.944444e-04
  0.16666667  0.41666667  0.20000000  6.944444e-04
  0.16666667  0.41666667  0.30000000  6.944444e-04
  0.16666667  0.41666667  0.40000000  6.944444e-04
  0.16666667  0.41666667  0.50000000  6.944444e-04
  0.16666667  0.41666667  0.60000000  6.944444e-04
  0.16666667  0.41666667  0.70000000  6.944444e-04
  0.16666667  0.41666667  0.80000000  6.944444e-04
  0.16666667  0.41666667  0.90000000  6.944444e-04
  0.16666667  0.50000000  0.00000000  6.944444e-04
  0.16666667  0.50000000  0.10000000  6.944444e-04
  0.16666667  0.50000000  0.20000000  6.944444e-04
  0.16666667  0.50000000  0.30000000  6.944444e-04
  0.16666667  0.50000000  0.40000000  6.944444e-04
  0.16666667  0.50000000  0.50000000  6.944444e-04
  0.16666667  0.50000000  0.60000000  6.944444e-04
  0.16666667  0.50000000  0.70000000  6.944444e-04
  0.16666667  0.50000000  0.80000000  6.944444e-04
  0.16666667  0.50000000  0.90000000  6.944444e-04
  0.16666667  0.58333333  0.00000000  6.944444e-04
  0.16666667  0.58333333  0.10000000  6.944444e-04
  0.16666667  0.58333333  0.20000000  6.944444e-04
  0.16666667  0.58333333  0.30000000  6.944444e-04
  0.16666667  0.58333333  0.40000000  6.944444e-04
  0.16666667  0.58333333  0.50000000  6.944444e-04
  0.16666667  0.58333333  0.60000000  6.944444e-04
  0.16666667  0.58333333  0.70000000  6.944444e-04
  0.16666667  0.58333333  0.80000000  6.944444e-04
  0.16666667  0.58333333  0.90000000  6.944444e-04
  0.16666667  0.66666667  0.00000000  6.944444e-04
  0.16666667  0.66666667  0.10000000  6.944444e-04
  0.16666667  0.66666667  0.20000000  6.944444e-04
  0.16666667  0.66666667  0.30000000  6.944444e-04
  0.16666667  0.66666667  0.40000000  6.944444e-04
  0.16666667  0.66666667  0.50000000  6.944444e-04
  0.16666667  0.66666667  0.60000000  6.944444e-04
  0.16666667  0.66666667  0.70000000  6.944444e-04
  0.16666667  0.66666667  0.80000000  6.944444e-04
  0.16666667  0.66666667  0.90000000  6.944444e-04
  0.16666667  0.75000000  0.00000000  6.944444e-04
  0.16666667  0.75000000  0.10000000  6.944444e-04
  0.16666667  0.75000000  0.20000000  6.944444e-04
  0.16666667  0.75000000  0.30000000  6.944444e-04
  0.16666667  0.75000000  0.40000000  6.944444e-04
  0.16666667  0.75000000  0.50000000  6.944444e-04
  0.16666667  0.75000000  0.60000000  6.944444e-04
  0.16666667  0.75000000  0.70000000  6.944444e-04
  0.16666667  0.75000000  0.80000000  6.944444e-04
  0.16666667  0.75000000  0.90000000  6.944444e-04
  0.16666667  0.83333333  0.00000000  6.944444e-04
  0.16666667  0.83333333  0.10000000  6.944444e-04
  0.16666667  0.83333333  0.20000000  6.944444e-04
  0.16666667  0.83333333  0.30000000  6.944444e-04
  0.16666667  0.83333333  0.40000000  6.944444e-04
  0.16666667  0.83333333  0.50000000  6.944444e-04
  0.16666667  0.83333333  0.60000000  6.944444e-04
  0.16666667  0.83333333  0.70000000  6.944444e-04
  0.16666667  0.83333333  0.80000000  6.944444e-04
  0.16666667  0.83333333  0.90000000  6.944444e-04
  0.16666667  0.91666667  0.00000000  6.944444e-04
  0.16666667  0.91666667  0.10000000  6.944444e-04
  0.16666667  0.91666667  0.20000000  6.944444e-04
  0.16666667  0.91666667  0.30000000  6.944444e-04
  0.16666667  0.91666667  0.40000000  6.944444e-04
  0.16666667  0.91666667  0.50000000  6.944444e-04
  0.16666667  0.91666667  0.60000000  6.944444e-04
  0.16666667  0.91666667  0.70000000  6.944444e-04
  0.16666667  0.91666667  0.80000000  6.944444e-04
  0.16666667  0.91666667  0.90000000  6.944444e-04
  0.25000000  0.00000000  0.00000000  6.944444e-04
  0.25000000  0.00000000  0.10000000  6.944444e-04
  0.25000000  0.00000000  0.20000000  6.944444e-04
  0.25000000  0.00000000  0.30000000  6.944444e-04
  0.25000000  0.00000000  0.40000000  6.944444e-04
  0.25000000  0.00000000  0.50000000  6.944444e-04
  0.25000000  0.00000000  0.60000000  6.944444e-04
  0.25000000  0.00000000  0.70000000  6.944444e-04
  0.25000000  0.00000000  0.80000000  6.944444e-04
  0.25000000  0.00000000  0.90000000  6.944444e-04
  0.25000000  0.08333333  0.00000000  6.944444e-04
  0.25000000  0.08333333  0.10000000  6.944444e-04
  0.25000000  0.08333333  0.20000000  6.944444e-04
  0.25000000  0.08333333  0.30000000  6.944444e-04
  0.25000000  0.08333333  0.40000000  6.944444e-04
  0.25000000  0.08333333  0.50000000  6.944444e-04
  0.25000000  0.08333333  0.60000000  6.944444e-04
  0.25000000  0.08333333  0.70000000  6.944444e-04
  0.25000000  0.08333333  0.80000000  6.944444e-04
  0.25000000  0.08333333  0.90000000  6.944444e-04
  0.25000000  0.16666667  0.00000000  6.944444e-04
  0.25000000  0.16666667  0.10000000  6.944444e-04
  0.25000000  0.16666667  0.20000000  6.944444e-04
  0.25000000  0.16666667  0.30000000  6.944444e-04
  0.25000000  0.16666667  0.40000000  6.944444e-04
  0.25000000  0.16666667  0.50000000  6.944444e-04
  0.25000000  0.16666667  0.60000000  6.944444e-04
  0.25000000  0.16666667  0.70000000  6.944444e-04
  0.25000000  0.16666667  0.80000000  6.944444e-04
  0.25000000  0.16666667  0.90000000  6.944444e-04
  0.25000000  0.25000000  0.00000000  6.944444e-04
  0.25000000  0.25000000  0.10000000  6.944444e-04
  0.25000000  0.25000000  0.20000000  6.944444e-04
  0.25000000  0.25000000  0.30000000  6.944444e-04
  0.25000000  0.25000000  0.40000000  6.944444e-04
  0.25000000  0.25000000  0.50000000  6.944444e-04
  0.25000000  0.25000000  0.60000000  6.944444e-04
  0.25000000  0.25000000  0.70000000  6.944444e-04
  0.25000000  0.25000000  0.80000000  6.944444e-04
  0.25000000  0.25000000  0.90000000  6.944444e-04
  0.25000000  0.33333333  0.00000000  6.944444e-04
  0.25000000  0.33333333  0.10000000  6.944444e-04
  0.25000000  0.33333333  0.20000000  6.944444e-04
  0.25000000  0.33333333  0.30000000  6.944444e-04
  0.25000000  0.33333333  0.40000000  6.944444e-04
  0.25000000  0.33333333  0.50000000  6.944444e-04
  0.25000000  0.33333333  0.60000000  6.944444e-04
  0.25000000  0.33333333  0.70000000  6.944444e-04
  0.25000000  0.33333333  0.80000000  6.944444e-04
  0.25000000  0.33333333  0.90000000  6.944444e-04
  0.25000000  0.41666667  0.00000000  6.944444e-04
  0.25000000  0.41666667  0.10000000  6.944444e-04
  0.25000000  0.41666667  0.20000000  6.944444e-04
  0.25000000  0.41666667  0.30000000  6.944444e-04
  0.25000000  0.41666667  0.40000000  6.944444e-04
  0.25000000  0.41666667  0.50000000  6.944444e-04
  0.25000000  0.41666667  0.60000000  6.944444e-04
  0.25000000  0.41666667  0.70000000  6.944444e-04
  0.25000000  0.41666667  0.80000000  6.944444e-04
  0.25000000  0.41666667  0.90000000  6.944444e-04
  0.25000000  0.50000000  0.00000000  6.944444e-04
  0.25000000  0.50000000  0.10000000  6.944444e-04
  0.25000000  0.50000000  0.20000000  6.944444e-04
  0.25000000  0.50000000  0.30000000  6.944444e-04
  0.25000000  0.50000000  0.40000000  6.944444e-04
  0.25000000  0.50000000  0.50000000  6.944444e-04
  0.25000000  0.50000000  0.60000000  6.944444e-04
  0.25000000  0.50000000  0.70000000  6.944444e-04
  0.25000000  0.50000000  0.80000000  6.944444e-04
  0.25000000  0.50000000  0.90000000  6.944444e-04
  0.25000000  0.58333333  0.00000000  6.944444e-04
  0.25000000  0.58333333  0.10000000  6.944444e-04
  0.25000000  0.58333333  0.20000000  6.944444e-04
  0.25000000  0.58333333  0.30000000  6.944444e-04
  0.25000000  0.58333333  0.40000000  6.944444e-04
  0.25000000  0.58333333  0.50000000  6.944444e-04
  0.25000000  0.58333333  0.60000000  6.944444e-04
  0.25000000  0.58333333  0.70000000  6.944444e-04
  0.25000000  0.58333333  0.80000000  6.944444e-04
  0.25000000  0.58333333  0.90000000  6.944444e-04
  0.25000000  0.66666667  0.00000000  6.944444e-04
  0.25000000  0.66666667  0.10000000  6.944444e-04
  0.25000000  0.66666667  0.20000000  6.944444e-04
  0.25000000  0.66666667  0.30000000  6.944444e-04
  0.25000000  0.66666667  0.40000000  6.944444e-04
  0.25000000  0.66666667  0.50000000  6.944444e-04
  0.25000000  0.66666667  0.60000000  6.944444e-04
  0.25000000  0.66666667  0.70000000  6.944444e-04
  0.25000000  0.66666667  0.80000000  6.944444e-04
  0.25000000  0.66666667  0.90000000  6.944444e-04
  0.25000000  0.75000000  0.00000000  6.944444e-04
  0.25000000  0.75000000  0.10000000  6.944444e-04
  0.25000000  0.75000000  0.20000000  6.944444e-04
  0.25000000  0.75000000  0.30000000  6.944444e-04
  0.25000000  0.75000000  0.40000000  6.944444e-04
  0.25000000  0.75000000  0.50000000  6.944444e-04
  0.25000000  0.75000000  0.60000000  6.944444e-04
  0.25000000  0.75000000  0.70000000  6.944444e-04
  0.25000000  0.75000000  0.80000000  6.944444e-04
  0.25000000  0.75000000  0.90000000  6.944444e-04
  0.25000000  0.83333333  0.00000000  6.944444e-04
  0.25000000  0.83333333  0.10000000  6.944444e-04
  0.25000000  0.83333333  0.20000000  6.944444e-04
  0.25000000  0.83333333  0.30000000  6.944444e-04
  0.25000000  0.83333333  0.40000000  6.944444e-04
  0.25000000  0.83333333  0.50000000  6.944444e-04
  0.25000000  0.83333333  0.60000000  6.944444e-04
  0.25000000  0.83333333  0.70000000  6.944444e-04
  0.25000000  0.83333333  0.80000000  6.944444e-04
  0.25000000  0.83333333  0.90000000  6.944444e-04
  0.25000000  0.91666667  0.00000000  6.944444e-04
  0.25000000  0.91666667  0.10000000  6.944444e-04
  0.25000000  0.91666667  0.20000000  6.944444e-04
  0.25000000  0.91666667  0.30000000  6.944444e-04
  0.25000000  0.91666667  0.40000000  6.944444e-04
  0.25000000  0.91666667  0.50000000  6.944444e-04
  0.25000000  0.91666667  0.60000000  6.944444e-04
  0.25000000  0.91666667  0.70000000  6.944444e-04
  0.25000000  0.91666667  0.80000000  6.944444e-04
  0.25000000  0.91666667  0.90000000  6.944444e-04
  0.33333333  0.00000000  0.00000000  6.944444e-04
  0.33333333  0.00000000  0.10000000  6.944444e-04
  0.33333333  0.00000000  0.20000000  6.944444e-04
  0.33333333  0.00000000  0.30000000  6.944444e-04
  0.33333333  0.00000000  0.40000000  6.944444e-04
  0.33333333  0.00000000  0.50000000  6.944444e-04
  0.33333333  0.00000000  0.60000000  6.944444e-04
  0.33333333  0.00000000  0.70000000  6.944444e-04
  0.33333333  0.00000000  0.80000000  6.944444e-04
  0.33333333  0.00000000  0.90000000  6.944444e-04
  0.33333333  0.08333333  0.00000000  6.944444e-04
  0.33333333  0.08333333  0.10000000  6.944444e-04
  0.33333333  0.08333333  0.20000000  6.944444e-04
  0.33333333  0.08333333  0.30000000  6.944444e-04
  0.33333333  0.08333333  0.40000000  6.944444e-04
  0.33333333  0.08333333  0.50000000  6.944444e-04
  0.33333333  0.08333333  0.60000000  6.944444e-04
  0.33333333  0.08333333  0.70000000  6.944444e-04
  0.33333333  0.08333333  0.80000000  6.944444e-04
  0.33333333  0.08333333  0.90000000  6.944444e-04
  0.33333333  0.16666667  0.00000000  6.944444e-04
  0.33333333  0.16666667  0.10000000  6.944444e-04
  0.33333333  0.16666667  0.20000000  6.944444e-04
  0.33333333  0.16666667  0.30000000  6.944444e-04
  0.33333333  0.16666667  0.40000000  6.944444e-04
  0.33333333  0.16666667  0.50000000  6.944444e-04
  0.33333333  0.16666667  0.60000000  6.944444e-04
  0.33333333  0.16666667  0.70000000  6.944444e-04
  0.33333333  0.16666667  0.80000000  6.944444e-04
  0.33333333  0.16666667  0.90000000  6.944444e-04
  0.33333333  0.25000000  0.00000000  6.944444e-04
  0.33333333  0.25000000  0.10000000  6.944444e-04
  0.33333333  0.25000000  0.20000000  6.944444e-04
  0.33333333  0.25000000  0.30000000  6.944444e-04
  0.33333333  0.25000000  0.40000000  6.944444e-04
  0.33333333  0.25000000  0.50000000  6.944444e-04
  0.33333333  0.25000000  0.60000000  6.944444e-04
  0.33333333  0.25000000  0.70000000  6.944444e-04